
Gurobi 12.0.2 (win64) logging started Wed Jun  4 16:58:03 2025

Set parameter LogFile to value "C:\Ioana\_uni\honours\slp\algorithm\Main_files\results\others\fatty_acids\Task_017_Sample002_irr_gurobi.log"
Gurobi Optimizer version 12.0.2 build v12.0.2rc0 (win64 - Windows 11.0 (26100.2))

CPU model: Intel(R) Core(TM) Ultra 5 125H, instruction set [SSE2|AVX|AVX2]
Thread count: 14 physical cores, 18 logical processors, using up to 18 threads

Non-default parameters:
TimeLimit  2200

Optimize a model with 47226 rows, 34498 columns and 146685 nonzeros
Model fingerprint: 0x6d0414d6
Variable types: 17253 continuous, 17245 integer (17245 binary)
Coefficient statistics:
  Matrix range     [1e-04, 8e+04]
  Objective range  [3e-05, 9e-01]
  Bounds range     [1e+00, 1e+03]
  RHS range        [1e+00, 1e+00]
Presolve removed 30824 rows and 21545 columns
Presolve time: 0.47s
Presolved: 16402 rows, 12953 columns, 54581 nonzeros
Variable types: 6410 continuous, 6543 integer (6543 binary)
Found heuristic solution: objective 18.9886712

Root relaxation: objective 1.041166e+00, 384 iterations, 0.02 seconds (0.01 work units)

    Nodes    |    Current Node    |     Objective Bounds      |     Work
 Expl Unexpl |  Obj  Depth IntInf | Incumbent    BestBd   Gap | It/Node Time

     0     0    1.04117    0    1   18.98867    1.04117  94.5%     -    0s
H    0     0                       1.0794416    1.04117  3.55%     -    0s
     0     0    1.04117    0    1    1.07944    1.04117  3.55%     -    0s

Explored 1 nodes (384 simplex iterations) in 0.67 seconds (0.47 work units)
Thread count was 18 (of 18 available processors)

Solution count 2: 1.07944 18.9887 

Optimal solution found (tolerance 1.00e-04)
Best objective 1.079441584931e+00, best bound 1.079441584931e+00, gap 0.0000%

Gurobi 12.0.2 (win64) logging started Thu Jun  5 15:34:18 2025

Set parameter LogFile to value "C:\Ioana\_uni\honours\slp\algorithm\Main_files\results\others\fatty_acids\Task_017_Sample002_irr_gurobi.log"
Gurobi Optimizer version 12.0.2 build v12.0.2rc0 (win64 - Windows 11.0 (26100.2))

CPU model: Intel(R) Core(TM) Ultra 5 125H, instruction set [SSE2|AVX|AVX2]
Thread count: 14 physical cores, 18 logical processors, using up to 18 threads

Non-default parameters:
TimeLimit  2200

Optimize a model with 47226 rows, 34498 columns and 146685 nonzeros
Model fingerprint: 0x6d0414d6
Variable types: 17253 continuous, 17245 integer (17245 binary)
Coefficient statistics:
  Matrix range     [1e-04, 8e+04]
  Objective range  [3e-05, 9e-01]
  Bounds range     [1e+00, 1e+03]
  RHS range        [1e+00, 1e+00]
Presolve removed 30824 rows and 21545 columns
Presolve time: 0.51s
Presolved: 16402 rows, 12953 columns, 54581 nonzeros
Variable types: 6410 continuous, 6543 integer (6543 binary)
Found heuristic solution: objective 18.9886712

Root relaxation: objective 1.041166e+00, 384 iterations, 0.02 seconds (0.01 work units)

    Nodes    |    Current Node    |     Objective Bounds      |     Work
 Expl Unexpl |  Obj  Depth IntInf | Incumbent    BestBd   Gap | It/Node Time

     0     0    1.04117    0    1   18.98867    1.04117  94.5%     -    0s
H    0     0                       1.0794416    1.04117  3.55%     -    0s
     0     0    1.04117    0    1    1.07944    1.04117  3.55%     -    0s

Explored 1 nodes (384 simplex iterations) in 0.68 seconds (0.47 work units)
Thread count was 18 (of 18 available processors)

Solution count 2: 1.07944 18.9887 

Optimal solution found (tolerance 1.00e-04)
Best objective 1.079441584931e+00, best bound 1.079441584931e+00, gap 0.0000%
